NAME: PointSet_Angle_30_8
TYPE: TSP
COMMENT: Points chosen discrete uniformly at random out of ${0, \ldots, 500}^2$.
DIMENSION: 30
EDGE_WEIGHT_TYPE: EUC_2D
NODE_COORD_SECTION
1 244 56
2 202 464
3 380 425
4 155 453
5 216 285
6 359 13
7 363 405
8 56 11
9 129 309
10 94 123
11 218 349
12 53 6
13 144 196
14 349 9
15 23 103
16 397 13
17 159 99
18 223 286
19 270 379
20 238 487
21 410 96
22 500 272
23 247 303
24 284 376
25 111 124
26 245 75
27 473 298
28 82 364
29 240 177
30 119 263
EOF
